09-routing/solutions/XSH-n20-k4-30.opt.sol
Route #1: 9 11 15 18 12
Route #2: 13 20 19 14 17
Route #3: 1 3 7 16 6
Route #4: 10 5 8 4 2
Cost 685
